NAME : tsp30_16.158.tour
COMMENT : Length = 158
COMMENT : Found by LKH [Keld Helsgaun]
TYPE : TOUR
DIMENSION : 30
TOUR_SECTION
1
2
9
13
8
12
16
30
3
22
20
14
24
6
28
19
17
26
29
7
18
15
27
5
10
11
25
21
4
23
-1
EOF
